50 100 30
0 27
1 36
2 33
3 12
4 25
5 46
6 14
7 12
8 20
9 12
10 47
11 21
12 49
13 32
14 44
15 45
16 31
17 38
18 33
19 21
20 35
21 43
22 43
23 36
24 25
25 26
26 45
27 30
28 44
29 46
30 40
31 39
32 33
33 37
34 41
35 40
36 38
37 39
38 43
39 48
40 41
41 48
42 43
43 49
44 46
45 46
46 47
47 49
48 49
24 4
45 20
19 42
13 15
39 20
41 38
35 34
45 33
10 16
0 46
41 9
30 39
47 18
2 11
13 11
12 45
35 11
21 39
14 25
37 35
22 30
10 22
46 8
4 17
5 11
47 42
43 48
13 20
12 40
26 47
20 3
22 12
40 47
42 11
46 32
40 11
35 45
41 0
43 49
36 34
22 28
45 17
48 19
45 1
25 48
43 8
39 44
3 40
32 5
39 1
12 14
7 8 20 16 9 15 39 32 34 46 40 47 12 6 1 49 41 18 42 19 25 13 35 0 24 45 17 4 23 44 
